27
20
29
24
25
26
20
28
25
27
28
25
27
29
21
20
20
20
28
28
31
32
32
37
31
37
35
31
30
35
38
32
30
32
37
39
36
31
35
35
36
34
33
33
32
36
37
36
32
35
37
38
33
35
37
30
33
38
36
32
34
36
35
34
32
31
38
31
33
38
33
37
30
35
38
34
39
33
37
31
33
33
35
37
30
34
38
35
31
30
32
39
39
36
34
39
30
35
30
32